
  18    0


   0   9 2 3 4 6 7 8 15 16 17 
   5   3 14 10 5 
   7   2 13 9 
   9   2 10 9 
   3   1 9 
   1   1 12 
   5   1 11 
   9   1 10 
   7   1 18
   6   1 18
   8   1 18
   8   1 18
   5   1 18
   9   1 18
   1   1 18
   3   1 18
   1   1 18
   0   0 
